\ENCODING=ISO-8859-1
\Problem name: inst_15

Maximize
 obj1: 39 x0 + 47 x1 + 3 x2 + 92 x3 + 72 x4 + 24 x5 + 55 x6 + 30 x7 + 20 x8
       + 43 x9 + 18 x10 + 58 x11
Subject To
 c0: 31 x0 + 25 x1 + 66 x2 + 26 x3 + 17 x4 + 36 x5 + 35 x6 + 47 x7 + 88 x8
     + 38 x9 + 27 x10 + 29 x11 + s0 <= 727
 c1: 9 x0 + 10 x1 + 77 x2 + 19 x3 + 48 x4 + 85 x5 + 16 x6 + 26 x7 + 47 x8
     + 41 x9 + 35 x10 + 32 x11 + s1 <= 1022
 c2: 12 x0 + 82 x1 + 15 x2 + 80 x3 + 79 x4 + 78 x5 + 2 x6 + 17 x7 + 82 x8
     + 9 x9 + 78 x10 + 9 x11 + s2 <= 568
 c3: 13 x0 + 40 x1 + x2 + 48 x3 + 45 x4 + 45 x5 + 45 x6 + 3 x7 + 8 x8 + 88 x9
     + 45 x10 + 2 x11 + s3 <= 936
 c4: 11 x0 + 60 x1 + 84 x2 + 2 x3 + 61 x4 + 84 x5 + 45 x6 + 77 x7 + 19 x8
     + 69 x9 + 45 x10 + 46 x11 + s4 <= 960
 c5: 58 x0 + 91 x1 + 74 x2 + 41 x3 + 45 x4 + 19 x5 + 12 x6 + 40 x7 + 46 x8
     + 86 x9 + 80 x10 + 91 x11 + s5 <= 737
 c6: 11 x0 + 41 x1 + 95 x2 + 94 x3 + 77 x4 + 74 x5 + 33 x6 + 84 x7 + 50 x8
     + 6 x9 + 100 x10 + 20 x11 + s6 <= 1013
Bounds
 0 <= x0 <= 1
 0 <= x1 <= 1
 0 <= x2 <= 1
 0 <= x3 <= 1
 0 <= x4 <= 1
 0 <= x5 <= 1
 0 <= x6 <= 1
 0 <= x7 <= 1
 0 <= x8 <= 1
 0 <= x9 <= 1
 0 <= x10 <= 1
 0 <= x11 <= 1
End
